35 16
13 37
14 31
35 28
21 1
2 36
31 2
0 24
32 34
9 36
21 10
24 4
25 2
5 38
4 32
3 32
7 33
4 15
27 35
13 4
21 31
37 2
15 17
23 29
34 8
4 20
32 29
4 12
9 23
33 2
7 31
5 28
35 9
18 8
11 11
30 16
12 3
21 22
1 27
11 29
26 37
25 8
15 20
32 39
34 24
38 23
26 23
7 29
9 22
35 40
23 7
6 19
18 30
40 10
36 32
40 32
31 11
26 7
38 21
26 30
25 40
19 13
20 35
1 4
39 28
35 37
33 25
11 3
4 35
4 33
28 23
27 11
36 31
36 35
21 6
6 18
10 22
20 25
0 10
40 4
26 20
27 19
30 9
16 35
10 11
3 23
30 27
32 2
29 16
6 23
20 3
34 9
40 20
23 39
20 39
30 40
16 40
8 9
25 7
5 40
31 5
21 0
12 28
39 9
21 39
6 17
13 16
32 36
10 9
7 20
34 13
21 12
9 1
2 7
18 7
31 29
39 15
27 16
25 5
10 33
